p edge 31 110
v 1 576
v 2 860
v 3 656
v 4 956
v 5 768
v 6 40
v 7 434
v 8 95
v 9 73
v 10 480
v 11 767
v 12 455
v 13 56
v 14 612
v 15 345
v 16 5
v 17 423
v 18 58
v 19 51
v 20 78
v 21 258
v 22 78
v 23 647
v 24 324
v 25 545
v 26 546
v 27 516
v 28 58
v 29 323
v 30 700
v 31 96
e 1 2
e 1 3
e 1 4
e 1 5
e 1 10
e 1 14
e 1 19
e 1 28
e 2 3
e 2 4
e 2 17
e 2 21
e 3 4
e 3 8
e 3 18
e 3 22
e 3 30
e 4 12
e 4 26
e 4 31
e 5 6
e 5 7
e 5 8
e 5 9
e 5 10
e 5 14
e 5 19
e 5 28
e 6 7
e 6 8
e 6 9
e 6 11
e 6 15
e 6 24
e 6 29
e 7 8
e 7 9
e 7 16
e 7 20
e 7 25
e 8 9
e 8 18
e 8 22
e 8 30
e 9 13
e 9 23
e 9 27
e 10 11
e 10 12
e 10 13
e 10 14
e 10 19
e 10 28
e 11 12
e 11 13
e 11 15
e 11 24
e 11 29
e 12 13
e 12 26
e 12 31
e 13 23
e 13 27
e 14 15
e 14 16
e 14 17
e 14 18
e 14 19
e 14 28
e 15 16
e 15 17
e 15 18
e 15 24
e 15 29
e 16 17
e 16 18
e 16 20
e 16 25
e 17 18
e 17 21
e 18 22
e 18 30
e 19 20
e 19 21
e 19 22
e 19 23
e 19 28
e 20 21
e 20 22
e 20 23
e 20 25
e 21 22
e 21 23
e 22 23
e 22 30
e 23 27
e 24 25
e 24 26
e 24 27
e 24 29
e 25 26
e 25 27
e 26 27
e 26 31
e 28 29
e 28 30
e 28 31
e 29 30
e 29 31
e 30 31
